
n_res = 8;
rcap = [108, 116, 102, 115, 1531, 1500, 1584, 1534];
rtype = [1, 1, 1, 1, 2, 2, 2, 2];
n_tasks = 100;
modes =  [{1, 2, 3}, {4, 5, 6}, {7, 8, 9}, {10, 11, 12}, {13, 14, 15}, {16, 17, 18}, {19, 20, 21}, {22, 23, 24}, {25, 26, 27}, {28, 29, 30}, {31, 32, 33}, {34, 35, 36}, {37, 38, 39}, {40, 41, 42}, {43, 44, 45}, {46, 47, 48}, {49, 50, 51}, {52, 53, 54}, {55, 56, 57}, {58, 59, 60}, {61, 62, 63}, {64, 65, 66}, {67, 68, 69}, {70, 71, 72}, {73, 74, 75}, {76, 77, 78}, {79, 80, 81}, {82, 83, 84}, {85, 86, 87}, {88, 89, 90}, {91, 92, 93}, {94, 95, 96}, {97, 98, 99}, {100, 101, 102}, {103, 104, 105}, {106, 107, 108}, {109, 110, 111}, {112, 113, 114}, {115, 116, 117}, {118, 119, 120}, {121, 122, 123}, {124, 125, 126}, {127, 128, 129}, {130, 131, 132}, {133, 134, 135}, {136, 137, 138}, {139, 140, 141}, {142, 143, 144}, {145, 146, 147}, {148, 149, 150}, {151, 152, 153}, {154, 155, 156}, {157, 158, 159}, {160, 161, 162}, {163, 164, 165}, {166, 167, 168}, {169, 170, 171}, {172, 173, 174}, {175, 176, 177}, {178, 179, 180}, {181, 182, 183}, {184, 185, 186}, {187, 188, 189}, {190, 191, 192}, {193, 194, 195}, {196, 197, 198}, {199, 200, 201}, {202, 203, 204}, {205, 206, 207}, {208, 209, 210}, {211, 212, 213}, {214, 215, 216}, {217, 218, 219}, {220, 221, 222}, {223, 224, 225}, {226, 227, 228}, {229, 230, 231}, {232, 233, 234}, {235, 236, 237}, {238, 239, 240}, {241, 242, 243}, {244, 245, 246}, {247, 248, 249}, {250, 251, 252}, {253, 254, 255}, {256, 257, 258}, {259, 260, 261}, {262, 263, 264}, {265, 266, 267}, {268, 269, 270}, {271, 272, 273}, {274, 275, 276}, {277, 278, 279}, {280, 281, 282}, {283, 284, 285}, {286, 287, 288}, {289, 290, 291}, {292, 293, 294}, {295, 296, 297}, {298, 299, 300}];
succ =  [{47, 41, 38, 35, 34, 26, 15, 14, 12, 7}, {58, 45, 41, 38, 37, 36, 35, 32, 30, 29, 28, 26, 23, 20, 17}, {35, 31, 30, 29, 28, 27, 26, 24, 22, 20, 19, 18, 17}, {47, 41, 38, 37, 35, 34, 29, 26, 20, 17, 14}, {58, 41, 40, 39, 38, 37, 36, 34, 33, 29, 28, 23}, {58, 57, 47, 45, 40, 38, 37, 35, 31, 23, 20}, {63, 58, 57, 52, 46, 45, 37, 32, 29, 20, 17}, {58, 57, 52, 44, 38, 33, 32, 31, 16}, {57, 52, 49, 47, 43, 42, 40, 38, 37, 36, 35, 33, 22}, {60, 57, 43, 38, 32, 28, 23, 22}, {63, 57, 52, 46, 45, 38, 29, 17}, {63, 57, 54, 52, 51, 46, 40, 37, 20}, {55, 47, 45, 44, 39, 30, 24}, {60, 58, 56, 55, 54, 52, 48, 46, 45, 43, 42, 36, 33}, {87, 64, 60, 58, 56, 55, 54, 52, 50, 49, 48, 46, 45, 43, 42, 36}, {60, 49, 48, 40, 28, 22}, {71, 60, 55, 54, 51, 48, 44, 42, 40, 39, 33}, {71, 60, 55, 52, 51, 47, 44, 40, 39, 33}, {87, 86, 68, 65, 64, 62, 60, 59, 58, 54, 53, 51, 50, 48, 44, 40, 38}, {71, 56, 55, 49, 48, 44, 43, 39, 33}, {66, 63, 57, 55, 48, 44, 40, 39, 33}, {100, 84, 78, 74, 71, 63, 62, 59, 56, 54, 51, 46, 39}, {87, 80, 71, 65, 64, 63, 62, 56, 52, 51, 49, 46, 44, 42}, {71, 65, 64, 62, 59, 54, 53, 52, 51, 48, 46, 40, 37}, {87, 80, 71, 63, 62, 59, 57, 52, 45, 42, 40}, {74, 66, 63, 56, 49, 44, 33}, {84, 74, 71, 63, 62, 59, 52, 51, 44, 39}, {99, 87, 86, 80, 77, 71, 66, 64, 59, 55, 47, 42}, {100, 86, 71, 68, 64, 62, 56, 54, 51, 48, 42}, {100, 87, 86, 85, 84, 80, 79, 78, 69, 68, 67, 66, 65, 64, 63, 61, 60, 56, 53}, {100, 86, 85, 80, 74, 69, 67, 66, 65, 64, 62, 61, 56, 49, 48}, {100, 86, 85, 80, 74, 69, 68, 61, 56, 54, 53, 51, 49}, {100, 87, 86, 84, 78, 77, 70, 69, 68, 67, 65, 64, 62, 59, 53, 50}, {100, 85, 80, 79, 77, 71, 70, 69, 68, 67, 66, 65, 63, 61, 57, 53}, {86, 85, 84, 79, 75, 74, 73, 71, 68, 65, 64, 62, 56, 51}, {84, 74, 71, 65, 63, 62, 44}, {100, 98, 97, 86, 85, 84, 79, 78, 67, 66, 60, 56}, {100, 99, 98, 96, 83, 80, 79, 78, 77, 75, 74, 71, 69, 67, 66}, {87, 70, 68, 65, 64, 53, 50}, {100, 95, 84, 79, 78, 76, 75, 69, 67, 61, 56}, {100, 96, 84, 71, 70, 69, 68, 66, 61, 57}, {85, 84, 83, 79, 78, 74, 69, 67, 61, 53}, {100, 99, 97, 96, 94, 83, 80, 77, 74, 66, 61}, {100, 98, 97, 96, 92, 82, 78, 77, 75, 73, 70, 67}, {100, 84, 83, 82, 77, 68, 51}, {99, 98, 96, 91, 86, 82, 76, 75, 73, 72, 70, 69}, {100, 96, 84, 73, 70, 67, 54}, {99, 98, 97, 96, 94, 93, 92, 82, 77, 76, 75, 73, 72}, {99, 97, 96, 95, 93, 92, 90, 84, 83, 82, 81, 79, 78, 77}, {97, 96, 95, 94, 92, 85, 83, 80, 61}, {98, 91, 67, 66}, {100, 99, 98, 97, 96, 92, 91, 90, 86, 82, 75}, {98, 97, 96, 94, 92, 90, 75, 73, 72}, {95, 93, 92, 90, 83, 82, 79, 75, 72}, {98, 97, 96, 93, 91, 90, 78, 74, 72}, {96, 92, 82, 77, 72, 70}, {97, 95, 94, 92, 91, 90, 82, 78, 72}, {100, 97, 96, 94, 93, 81, 76, 75}, {96, 94, 93, 92, 91, 76, 72}, {95, 92, 76, 75, 74, 72}, {98, 93, 91, 90, 82, 72}, {99, 94, 92, 91, 90, 89, 81}, {99, 94, 76, 72}, {97, 96, 91, 90, 89, 82}, {99, 95, 93, 90, 89, 88}, {95, 93, 92, 76}, {94, 90, 72}, {99, 94, 72}, {97, 92, 90, 81}, {93, 90, 83}, {97, 91, 88}, {89, 81}, {95, 81}, {89, 82}, {89, 88}, {90, 88}, {91, 88}, {89, 88}, {91, 89}, {81}, {88}, {88}, {88}, {94}, {88}, {89}, {95}, {}, {}, {}, {}, {}, {}, {}, {}, {}, {}, {}, {}, {}];
n_opt = 300;
dur = [14, 17, 24, 4, 27, 30, 17, 22, 29, 11, 15, 29, 5, 24, 25, 12, 13, 24, 4, 12, 19, 14, 20, 22, 13, 17, 28, 2, 17, 28, 4, 7, 20, 5, 24, 30, 14, 18, 23, 5, 28, 29, 5, 6, 12, 14, 24, 28, 9, 18, 20, 2, 25, 27, 10, 18, 25, 4, 15, 21, 3, 16, 29, 17, 26, 29, 8, 9, 17, 19, 21, 25, 5, 9, 25, 4, 5, 8, 2, 9, 12, 9, 19, 29, 3, 12, 21, 11, 15, 20, 21, 22, 24, 9, 10, 16, 2, 6, 7, 25, 28, 29, 9, 23, 30, 4, 11, 12, 11, 26, 27, 13, 14, 22, 18, 19, 29, 5, 24, 25, 5, 6, 11, 6, 24, 25, 13, 17, 30, 8, 11, 26, 7, 23, 28, 14, 25, 27, 2, 14, 21, 6, 16, 23, 1, 18, 28, 4, 17, 20, 2, 21, 24, 16, 19, 24, 3, 10, 18, 1, 2, 6, 12, 17, 18, 12, 15, 19, 4, 18, 20, 4, 24, 26, 11, 25, 27, 2, 5, 17, 6, 22, 29, 4, 11, 12, 15, 24, 25, 24, 25, 29, 9, 26, 30, 4, 16, 30, 9, 23, 30, 9, 21, 26, 15, 25, 26, 9, 29, 30, 14, 24, 27, 7, 23, 29, 5, 21, 30, 8, 9, 10, 25, 28, 30, 20, 24, 30, 10, 14, 24, 2, 22, 23, 10, 23, 27, 7, 16, 27, 15, 16, 17, 6, 22, 30, 6, 10, 28, 4, 15, 24, 3, 20, 29, 2, 20, 23, 7, 10, 13, 8, 12, 20, 3, 4, 17, 16, 22, 27, 16, 23, 30, 10, 13, 18, 24, 28, 29, 3, 17, 27, 4, 13, 20, 27, 28, 29, 2, 8, 22, 1, 16, 18, 3, 9, 23, 1, 18, 28];
rreq = [|10, 6, 6, 13, 12, 12, 29, 20, 16, 13, 12, 10, 6, 5, 1, 26, 24, 20, 23, 20, 19, 12, 9, 6, 15, 13, 9, 21, 20, 20, 24, 23, 20, 14, 10, 4, 16, 12, 12, 20, 15, 10, 23, 22, 14, 14, 9, 5, 24, 22, 22, 21, 21, 20, 29, 27, 26, 25, 20, 15, 20, 16, 11, 29, 24, 19, 24, 22, 22, 16, 13, 12, 26, 24, 20, 15, 15, 10, 13, 9, 2, 28, 25, 24, 12, 10, 5, 25, 14, 12, 21, 19, 11, 9, 5, 4, 9, 7, 7, 19, 17, 2, 28, 28, 28, 22, 18, 15, 19, 13, 9, 24, 20, 12, 20, 20, 16, 20, 19, 18, 16, 15, 15, 21, 21, 21, 27, 26, 22, 28, 26, 26, 7, 4, 3, 7, 6, 6, 28, 27, 26, 28, 28, 26, 15, 14, 14, 22, 8, 6, 21, 21, 17, 27, 27, 27, 26, 21, 21, 23, 21, 20, 19, 18, 13, 23, 17, 15, 27, 22, 16, 14, 9, 5, 16, 12, 6, 29, 26, 25, 26, 12, 9, 16, 13, 12, 25, 18, 6, 27, 21, 14, 17, 11, 7, 22, 20, 18, 2, 2, 2, 18, 15, 11, 22, 15, 12, 29, 27, 26, 16, 10, 5, 21, 12, 4, 25, 21, 15, 19, 18, 9, 14, 14, 14, 9, 7, 6, 23, 23, 23, 23, 23, 23, 18, 8, 2, 25, 19, 15, 17, 10, 6, 13, 5, 3, 28, 27, 25, 23, 15, 10, 14, 13, 13, 26, 24, 24, 20, 19, 19, 27, 26, 26, 23, 18, 12, 12, 9, 5, 29, 27, 25, 9, 8, 6, 27, 27, 27, 30, 29, 29, 28, 11, 5, 22, 22, 22, 18, 17, 16, 21, 20, 16, 25, 22, 20, 28, 28, 28
 |29, 28, 28, 17, 17, 16, 28, 26, 25, 18, 12, 7, 10, 7, 2, 15, 15, 11, 8, 5, 4, 20, 17, 5, 13, 10, 7, 15, 8, 5, 24, 24, 24, 16, 15, 15, 12, 11, 11, 4, 4, 3, 28, 13, 6, 21, 20, 19, 26, 26, 26, 9, 9, 9, 26, 23, 17, 28, 18, 13, 17, 14, 10, 11, 11, 8, 22, 20, 18, 20, 14, 10, 10, 9, 7, 16, 11, 2, 13, 13, 12, 7, 7, 7, 28, 26, 24, 23, 21, 19, 19, 18, 16, 28, 22, 14, 24, 13, 8, 26, 20, 13, 27, 27, 24, 21, 19, 14, 14, 8, 5, 8, 5, 3, 30, 21, 18, 6, 3, 2, 23, 18, 11, 27, 15, 10, 27, 19, 11, 8, 6, 3, 19, 18, 18, 20, 18, 15, 22, 18, 15, 18, 17, 16, 22, 10, 7, 18, 15, 6, 20, 15, 11, 15, 9, 7, 17, 10, 8, 11, 10, 4, 23, 19, 10, 24, 24, 20, 22, 20, 19, 24, 24, 21, 26, 23, 21, 29, 22, 14, 25, 25, 23, 13, 10, 9, 17, 15, 14, 13, 12, 7, 17, 10, 9, 22, 15, 3, 18, 10, 10, 26, 14, 9, 22, 19, 12, 24, 21, 21, 16, 13, 12, 28, 16, 9, 10, 9, 7, 12, 11, 9, 17, 13, 6, 18, 14, 11, 8, 4, 2, 17, 10, 7, 23, 22, 21, 27, 17, 11, 16, 11, 3, 27, 18, 2, 17, 13, 10, 24, 23, 19, 23, 9, 2, 3, 2, 1, 19, 18, 17, 23, 18, 13, 16, 15, 15, 28, 27, 25, 25, 19, 15, 29, 25, 24, 12, 11, 10, 25, 18, 14, 17, 14, 9, 12, 8, 7, 9, 7, 6, 15, 15, 15, 13, 12, 11, 19, 12, 3
 |26, 23, 18, 24, 24, 24, 5, 5, 4, 11, 9, 3, 20, 17, 11, 12, 8, 5, 13, 12, 12, 26, 20, 11, 8, 4, 4, 24, 20, 13, 29, 26, 23, 12, 11, 9, 13, 7, 3, 20, 19, 15, 26, 22, 19, 27, 24, 21, 17, 11, 10, 15, 12, 7, 19, 13, 11, 4, 3, 3, 13, 13, 12, 10, 9, 6, 23, 23, 23, 14, 9, 4, 22, 20, 18, 10, 10, 6, 8, 7, 7, 17, 14, 10, 24, 16, 11, 30, 24, 15, 28, 27, 25, 3, 3, 2, 22, 18, 13, 12, 10, 9, 24, 20, 12, 19, 16, 11, 8, 7, 6, 26, 21, 19, 22, 12, 9, 13, 11, 2, 8, 5, 4, 26, 22, 20, 29, 18, 8, 23, 13, 7, 25, 13, 6, 24, 12, 3, 24, 22, 20, 24, 16, 12, 11, 9, 6, 21, 14, 8, 4, 2, 1, 20, 18, 18, 16, 15, 12, 20, 13, 6, 17, 16, 15, 22, 17, 13, 21, 19, 12, 22, 20, 19, 6, 6, 5, 22, 17, 14, 19, 14, 9, 25, 21, 20, 9, 8, 6, 15, 11, 11, 6, 4, 3, 26, 21, 15, 7, 5, 5, 21, 21, 21, 12, 7, 6, 19, 16, 5, 16, 12, 4, 25, 22, 15, 18, 18, 16, 9, 7, 5, 18, 9, 4, 10, 7, 3, 29, 24, 22, 16, 15, 15, 24, 23, 23, 26, 12, 4, 18, 15, 7, 27, 26, 26, 26, 20, 20, 21, 16, 9, 23, 18, 4, 21, 12, 11, 21, 18, 16, 20, 19, 18, 29, 29, 27, 9, 5, 4, 17, 15, 11, 19, 16, 10, 17, 14, 9, 26, 24, 23, 30, 26, 23, 8, 8, 4, 3, 2, 2, 3, 2, 1, 22, 16, 10, 27, 26, 25
 |15, 11, 5, 9, 7, 7, 11, 7, 5, 19, 14, 5, 6, 4, 3, 15, 13, 10, 12, 12, 10, 24, 12, 8, 19, 12, 11, 22, 21, 12, 12, 11, 10, 19, 13, 10, 23, 18, 3, 21, 21, 21, 24, 16, 14, 25, 23, 21, 17, 14, 3, 24, 21, 17, 12, 8, 4, 7, 5, 4, 23, 20, 17, 27, 16, 10, 16, 13, 12, 15, 15, 14, 15, 13, 7, 22, 19, 16, 21, 19, 14, 22, 21, 18, 22, 17, 16, 23, 17, 10, 21, 15, 15, 27, 20, 13, 27, 21, 19, 28, 24, 20, 26, 24, 20, 20, 19, 18, 13, 10, 8, 7, 6, 5, 5, 5, 5, 27, 26, 26, 15, 11, 2, 23, 17, 7, 18, 16, 16, 8, 7, 4, 19, 14, 8, 25, 25, 25, 15, 12, 7, 26, 22, 17, 22, 17, 13, 20, 20, 16, 13, 11, 5, 3, 2, 2, 9, 6, 5, 24, 19, 13, 22, 22, 22, 13, 11, 8, 12, 9, 7, 17, 15, 14, 27, 21, 19, 6, 4, 4, 22, 20, 11, 15, 10, 7, 18, 14, 11, 18, 13, 5, 16, 11, 5, 17, 16, 3, 14, 14, 11, 22, 11, 6, 28, 27, 26, 27, 24, 24, 7, 7, 5, 23, 12, 6, 20, 10, 4, 23, 19, 10, 27, 25, 21, 14, 13, 13, 13, 13, 8, 20, 20, 15, 19, 14, 1, 28, 26, 22, 21, 13, 8, 4, 3, 3, 19, 16, 16, 26, 22, 17, 18, 16, 16, 24, 24, 24, 24, 22, 13, 20, 20, 20, 22, 19, 14, 20, 18, 16, 21, 20, 15, 7, 6, 6, 14, 13, 13, 22, 15, 10, 24, 21, 6, 15, 14, 12, 17, 12, 3, 27, 23, 19, 4, 2, 1, 26, 24, 24
 |28, 23, 20, 25, 19, 15, 12, 9, 4, 10, 9, 8, 12, 12, 11, 29, 22, 19, 19, 14, 13, 25, 23, 20, 17, 15, 8, 15, 7, 3, 15, 13, 10, 19, 13, 11, 23, 21, 20, 21, 21, 21, 18, 12, 8, 6, 3, 3, 24, 24, 24, 11, 8, 8, 16, 15, 15, 30, 24, 21, 23, 22, 22, 9, 6, 4, 24, 19, 14, 10, 7, 5, 2, 2, 2, 11, 6, 3, 18, 15, 15, 13, 12, 10, 20, 15, 9, 7, 5, 5, 20, 19, 13, 24, 16, 13, 28, 27, 26, 21, 12, 7, 6, 5, 4, 28, 26, 26, 5, 5, 5, 29, 17, 11, 24, 24, 23, 30, 18, 7, 26, 23, 16, 23, 22, 19, 22, 19, 18, 27, 21, 17, 27, 25, 23, 22, 12, 5, 27, 20, 19, 27, 23, 22, 23, 17, 10, 18, 11, 8, 28, 27, 27, 26, 21, 16, 14, 13, 7, 12, 8, 5, 7, 6, 4, 24, 23, 13, 22, 19, 15, 6, 5, 4, 16, 16, 6, 14, 12, 9, 28, 19, 11, 20, 20, 19, 20, 16, 12, 19, 12, 8, 2, 2, 2, 17, 10, 4, 18, 15, 8, 10, 9, 9, 21, 19, 13, 4, 3, 1, 26, 20, 9, 17, 17, 10, 13, 9, 4, 22, 20, 18, 19, 8, 6, 28, 22, 13, 12, 12, 12, 28, 26, 24, 7, 5, 5, 29, 22, 13, 19, 9, 8, 17, 14, 12, 9, 7, 5, 29, 26, 25, 9, 8, 7, 23, 23, 23, 21, 15, 6, 28, 27, 27, 18, 16, 12, 2, 2, 2, 16, 13, 10, 17, 13, 13, 22, 12, 12, 29, 28, 28, 8, 7, 4, 28, 15, 10, 13, 12, 10, 21, 11, 2, 23, 19, 16, 21, 20, 10
 |27, 23, 18, 9, 7, 5, 22, 18, 6, 12, 7, 3, 17, 15, 3, 19, 18, 17, 20, 19, 6, 26, 20, 10, 19, 16, 15, 16, 13, 10, 20, 15, 15, 10, 9, 7, 23, 23, 23, 23, 22, 21, 9, 7, 5, 9, 7, 5, 14, 13, 8, 15, 10, 3, 27, 20, 13, 19, 17, 16, 22, 19, 18, 5, 3, 1, 18, 16, 15, 18, 18, 18, 25, 18, 7, 15, 14, 12, 14, 11, 6, 13, 11, 11, 19, 9, 6, 21, 15, 5, 16, 15, 14, 20, 14, 14, 23, 23, 22, 16, 11, 1, 15, 8, 4, 11, 11, 5, 27, 23, 19, 25, 20, 16, 21, 20, 19, 15, 11, 8, 7, 7, 6, 24, 16, 13, 17, 15, 15, 22, 18, 10, 21, 13, 2, 27, 25, 22, 17, 9, 8, 11, 11, 10, 3, 3, 3, 11, 10, 10, 28, 23, 17, 17, 16, 15, 24, 21, 19, 29, 15, 10, 19, 15, 12, 23, 18, 15, 21, 18, 11, 29, 29, 28, 25, 25, 25, 28, 26, 23, 9, 5, 2, 21, 21, 5, 22, 17, 8, 23, 19, 8, 19, 18, 18, 23, 16, 12, 21, 14, 11, 5, 3, 3, 6, 5, 5, 21, 14, 14, 27, 16, 11, 23, 19, 11, 25, 17, 9, 19, 8, 2, 17, 10, 7, 16, 13, 11, 25, 21, 19, 16, 15, 12, 28, 24, 24, 12, 11, 11, 28, 21, 18, 15, 14, 12, 16, 15, 12, 20, 15, 13, 21, 17, 4, 7, 6, 1, 16, 13, 13, 23, 16, 12, 18, 14, 13, 23, 18, 11, 13, 12, 4, 17, 17, 17, 27, 25, 25, 15, 15, 15, 23, 23, 21, 17, 16, 4, 5, 5, 4, 18, 11, 6, 26, 15, 14, 20, 14, 10
 |26, 25, 24, 12, 12, 8, 26, 19, 15, 16, 11, 9, 26, 23, 16, 11, 11, 11, 19, 19, 18, 27, 24, 24, 25, 23, 19, 26, 23, 13, 8, 6, 6, 24, 22, 15, 18, 15, 15, 22, 18, 17, 15, 12, 4, 10, 9, 9, 16, 14, 14, 19, 17, 16, 12, 11, 10, 16, 13, 11, 13, 13, 12, 13, 12, 11, 12, 10, 7, 5, 4, 4, 25, 21, 10, 25, 13, 4, 5, 5, 5, 23, 11, 4, 14, 14, 14, 24, 20, 13, 20, 14, 8, 24, 17, 10, 9, 6, 2, 15, 12, 10, 27, 17, 14, 22, 16, 12, 29, 21, 15, 20, 15, 12, 28, 25, 20, 14, 12, 10, 26, 26, 22, 20, 13, 12, 25, 20, 17, 15, 13, 10, 16, 13, 11, 10, 10, 10, 20, 20, 19, 20, 16, 9, 23, 20, 16, 22, 22, 20, 9, 5, 5, 15, 14, 14, 24, 20, 17, 16, 9, 5, 8, 8, 8, 9, 7, 6, 29, 21, 11, 22, 14, 11, 16, 10, 9, 13, 10, 9, 17, 13, 13, 20, 19, 14, 23, 17, 7, 12, 9, 5, 17, 15, 13, 13, 13, 7, 13, 13, 13, 9, 7, 3, 4, 3, 3, 11, 7, 2, 18, 16, 15, 23, 22, 17, 29, 28, 28, 8, 8, 8, 28, 22, 20, 26, 21, 21, 23, 17, 2, 28, 26, 26, 11, 8, 7, 28, 22, 21, 20, 19, 12, 23, 12, 10, 16, 15, 11, 29, 29, 29, 24, 13, 6, 29, 28, 28, 19, 17, 9, 23, 13, 6, 9, 9, 6, 23, 18, 5, 17, 16, 15, 26, 22, 21, 26, 20, 20, 21, 21, 20, 24, 22, 21, 26, 24, 22, 15, 10, 8, 22, 17, 12, 30, 28, 28, 24, 20, 16
 |16, 14, 13, 25, 16, 6, 25, 24, 24, 14, 7, 4, 26, 24, 22, 16, 15, 12, 29, 28, 24, 13, 12, 5, 12, 9, 9, 28, 28, 28, 16, 16, 7, 17, 13, 9, 19, 18, 10, 27, 18, 4, 20, 14, 7, 17, 15, 15, 25, 23, 21, 22, 21, 20, 24, 13, 3, 12, 6, 6, 17, 6, 3, 7, 7, 7, 7, 6, 6, 17, 14, 14, 24, 18, 10, 17, 14, 11, 19, 16, 6, 14, 9, 7, 21, 20, 14, 26, 15, 11, 11, 10, 6, 13, 9, 9, 23, 21, 12, 22, 20, 14, 19, 17, 17, 21, 16, 11, 18, 17, 15, 4, 4, 4, 28, 28, 28, 13, 12, 12, 10, 6, 5, 21, 16, 7, 10, 10, 9, 27, 16, 12, 18, 12, 7, 10, 9, 9, 19, 18, 17, 28, 28, 28, 15, 9, 7, 29, 26, 21, 16, 12, 10, 10, 7, 6, 11, 10, 9, 6, 6, 6, 11, 6, 3, 25, 23, 18, 4, 3, 2, 5, 4, 3, 11, 8, 7, 21, 18, 14, 19, 13, 10, 18, 16, 15, 23, 21, 19, 27, 16, 2, 28, 28, 26, 21, 18, 8, 25, 23, 23, 15, 11, 2, 24, 19, 8, 11, 5, 1, 25, 21, 20, 24, 23, 18, 19, 17, 17, 16, 13, 10, 10, 7, 7, 22, 22, 21, 26, 20, 13, 30, 25, 23, 15, 11, 5, 14, 12, 9, 19, 14, 9, 25, 20, 17, 27, 27, 27, 19, 14, 13, 23, 22, 17, 29, 18, 13, 16, 13, 10, 22, 18, 17, 14, 11, 6, 14, 11, 8, 17, 17, 17, 6, 6, 6, 16, 13, 9, 29, 29, 29, 20, 17, 7, 10, 9, 6, 30, 24, 22, 19, 14, 10, 26, 19, 15, 23, 21, 21|];